NAME: A-n5-f2
COMMENT : -
TYPE : GVRP
DIMENSION : 6
EDGE_WEIGHT_TYPE : EUC_2D
CAPACITY : 100
AUTONOMY : 52
TIME LIMIT : 11
SPEED : 40.0
FUEL CONSUMPTION : 1.0
DEPOT_COORD_SECTION
0 82 76
CUSTOMER_COORD_SECTION
1 49 8 19 0.8704229032987915
2 5 10 21 0.7833222625336199
3 85 60 6 0.47909656567027803
4 98 5 19 0.412567813968444
AFS_COORD_SECTION
5 79 24 0.25
6 30 16 0.25
EOF